nK = 1123;
nT = 4;
nI = 7;
L = 35;
TT = 268;
np = 1;
nc = 3;
b = [34, 38, 56, 33, 57, 30, 34];
d = [114, 92, 98, 140, 106, 142, 71];
m = [2.5, 2.3, 1.3, 1.7, 2.1, 1, 1.4];
pt = [0.23, 0.31, 0.26, 0.23];
st = [9.66, 13.02, 15.34, 11.5];
arc = {<1, 0, 1, 1, 0, 0, 0, [1, 1, 1, 1]>, <2, 1, 2, 1, 0, 0, 0, [1, 1, 1, 1]>, <3, 2, 3, 1, 0, 0, 0, [1, 1, 1, 1]>, <4, 3, 4, 1, 0, 0, 0, [1, 1, 1, 1]>, <5, 4, 5, 1, 0, 0, 0, [1, 1, 1, 1]>, <6, 5, 6, 1, 0, 0, 0, [1, 1, 1, 1]>, <7, 6, 7, 1, 0, 0, 0, [1, 1, 1, 1]>, <8, 7, 8, 1, 0, 0, 0, [1, 1, 1, 1]>, <9, 8, 9, 1, 0, 0, 0, [1, 1, 1, 1]>, <10, 9, 10, 1, 0, 0, 0, [1, 1, 1, 1]>, <11, 10, 11, 1, 0, 0, 0, [1, 1, 1, 1]>, <12, 11, 12, 1, 0, 0, 0, [1, 1, 1, 1]>, <13, 12, 13, 1, 0, 0, 0, [1, 1, 1, 1]>, <14, 13, 14, 1, 0, 0, 0, [1, 1, 1, 1]>, <15, 14, 15, 1, 0, 0, 0, [1, 1, 1, 1]>, <16, 15, 16, 1, 0, 0, 0, [1, 1, 1, 1]>, <17, 16, 17, 1, 0, 0, 0, [1, 1, 1, 1]>, <18, 17, 18, 1, 0, 0, 0, [1, 1, 1, 1]>, <19, 18, 19, 1, 0, 0, 0, [1, 1, 1, 1]>, <20, 19, 20, 1, 0, 0, 0, [1, 1, 1, 1]>, <21, 20, 21, 1, 0, 0, 0, [1, 1, 1, 1]>, <22, 21, 22, 1, 0, 0, 0, [1, 1, 1, 1]>, <23, 22, 23, 1, 0, 0, 0, [1, 1, 1, 1]>, <24, 23, 24, 1, 0, 0, 0, [1, 1, 1, 1]>, <25, 24, 25, 1, 0, 0, 0, [1, 1, 1, 1]>, <26, 25, 26, 1, 0, 0, 0, [1, 1, 1, 1]>, <27, 26, 27, 1, 0, 0, 0, [1, 1, 1, 1]>, <28, 27, 28, 1, 0, 0, 0, [1, 1, 1, 1]>, <29, 28, 29, 1, 0, 0, 0, [1, 1, 1, 1]>, <30, 29, 30, 1, 0, 0, 0, [1, 1, 1, 1]>, <31, 30, 31, 1, 0, 0, 0, [1, 1, 1, 1]>, <32, 31, 32, 1, 0, 0, 0, [1, 1, 1, 1]>, <33, 32, 33, 1, 0, 0, 0, [1, 1, 1, 1]>, <34, 33, 34, 1, 0, 0, 0, [1, 1, 1, 1]>, <35, 34, 35, 1, 0, 0, 0, [1, 1, 1, 1]>, <36, 1, 17, 16, 1, 0, 1, [1, 1, 0, 1]>, <37, 2, 18, 16, 1, 0, 1, [1, 1, 0, 1]>, <38, 3, 19, 16, 1, 0, 1, [1, 1, 0, 1]>, <39, 4, 20, 16, 1, 0, 1, [1, 1, 0, 1]>, <40, 5, 21, 16, 1, 0, 1, [1, 1, 0, 1]>, <41, 6, 22, 16, 1, 0, 1, [1, 1, 0, 1]>, <42, 10, 26, 16, 1, 0, 1, [1, 1, 0, 1]>, <43, 11, 27, 16, 1, 0, 1, [1, 1, 0, 1]>, <44, 12, 28, 16, 1, 0, 1, [1, 1, 0, 1]>, <45, 13, 29, 16, 1, 0, 1, [1, 1, 0, 1]>, <46, 14, 30, 16, 1, 0, 1, [1, 1, 0, 1]>, <47, 15, 31, 16, 1, 0, 1, [1, 1, 0, 1]>, <48, 16, 32, 16, 1, 0, 1, [1, 1, 0, 1]>, <49, 17, 33, 16, 1, 0, 1, [1, 1, 0, 1]>, <50, 18, 34, 16, 1, 0, 1, [1, 1, 0, 1]>, <51, 19, 35, 16, 1, 0, 1, [1, 1, 0, 1]>, <52, 0, 20, 20, 2, 0, 0, [0, 1, 1, 1]>, <53, 1, 21, 20, 2, 0, 0, [0, 1, 1, 1]>, <54, 2, 22, 20, 2, 0, 0, [0, 1, 1, 1]>, <55, 3, 23, 20, 2, 0, 0, [0, 1, 1, 1]>, <56, 4, 24, 20, 2, 0, 0, [0, 1, 1, 1]>, <57, 5, 25, 20, 2, 0, 0, [0, 1, 1, 1]>, <58, 6, 26, 20, 2, 0, 0, [0, 1, 1, 1]>, <59, 7, 27, 20, 2, 0, 0, [0, 1, 1, 1]>, <60, 8, 28, 20, 2, 0, 0, [0, 1, 1, 1]>, <61, 9, 29, 20, 2, 0, 0, [0, 1, 1, 1]>, <62, 10, 30, 20, 2, 0, 0, [0, 1, 1, 1]>, <63, 11, 31, 20, 2, 0, 0, [0, 1, 1, 1]>, <64, 12, 32, 20, 2, 0, 0, [0, 1, 1, 1]>, <65, 13, 33, 20, 2, 0, 0, [0, 1, 1, 1]>, <66, 14, 34, 20, 2, 0, 0, [0, 1, 1, 1]>, <67, 15, 35, 20, 2, 0, 0, [0, 1, 1, 1]>, <68, 0, 22, 22, 3, 0, 0, [0, 1, 1, 1]>, <69, 1, 23, 22, 3, 0, 0, [0, 1, 1, 1]>, <70, 2, 24, 22, 3, 0, 0, [0, 1, 1, 1]>, <71, 3, 25, 22, 3, 0, 0, [0, 1, 1, 1]>, <72, 4, 26, 22, 3, 0, 0, [0, 1, 1, 1]>, <73, 5, 27, 22, 3, 0, 0, [0, 1, 1, 1]>, <74, 6, 28, 22, 3, 0, 0, [0, 1, 1, 1]>, <75, 7, 29, 22, 3, 0, 0, [0, 1, 1, 1]>, <76, 8, 30, 22, 3, 0, 0, [0, 1, 1, 1]>, <77, 9, 31, 22, 3, 0, 0, [0, 1, 1, 1]>, <78, 10, 32, 22, 3, 0, 0, [0, 1, 1, 1]>, <79, 11, 33, 22, 3, 0, 0, [0, 1, 1, 1]>, <80, 12, 34, 22, 3, 0, 0, [0, 1, 1, 1]>, <81, 13, 35, 22, 3, 0, 0, [0, 1, 1, 1]>, <82, 0, 19, 19, 4, 1, 0, [0, 1, 1, 1]>, <83, 1, 20, 19, 4, 1, 0, [0, 1, 1, 1]>, <84, 2, 21, 19, 4, 1, 0, [0, 1, 1, 1]>, <85, 3, 22, 19, 4, 1, 0, [0, 1, 1, 1]>, <86, 4, 23, 19, 4, 1, 0, [0, 1, 1, 1]>, <87, 5, 24, 19, 4, 1, 0, [0, 1, 1, 1]>, <88, 6, 25, 19, 4, 1, 0, [0, 1, 1, 1]>, <89, 7, 26, 19, 4, 1, 0, [0, 1, 1, 1]>, <90, 8, 27, 19, 4, 1, 0, [0, 1, 1, 1]>, <91, 9, 28, 19, 4, 1, 0, [0, 1, 1, 1]>, <92, 10, 29, 19, 4, 1, 0, [0, 1, 1, 1]>, <93, 11, 30, 19, 4, 1, 0, [0, 1, 1, 1]>, <94, 12, 31, 19, 4, 1, 0, [0, 1, 1, 1]>, <95, 13, 32, 19, 4, 1, 0, [0, 1, 1, 1]>, <96, 14, 33, 19, 4, 1, 0, [0, 1, 1, 1]>, <97, 15, 34, 19, 4, 1, 0, [0, 1, 1, 1]>, <98, 16, 35, 19, 4, 1, 0, [0, 1, 1, 1]>, <99, 0, 21, 21, 5, 0, 0, [1, 1, 0, 1]>, <100, 1, 22, 21, 5, 0, 0, [1, 1, 0, 1]>, <101, 2, 23, 21, 5, 0, 0, [1, 1, 0, 1]>, <102, 3, 24, 21, 5, 0, 0, [1, 1, 0, 1]>, <103, 4, 25, 21, 5, 0, 0, [1, 1, 0, 1]>, <104, 5, 26, 21, 5, 0, 0, [1, 1, 0, 1]>, <105, 6, 27, 21, 5, 0, 0, [1, 1, 0, 1]>, <106, 7, 28, 21, 5, 0, 0, [1, 1, 0, 1]>, <107, 8, 29, 21, 5, 0, 0, [1, 1, 0, 1]>, <108, 9, 30, 21, 5, 0, 0, [1, 1, 0, 1]>, <109, 10, 31, 21, 5, 0, 0, [1, 1, 0, 1]>, <110, 11, 32, 21, 5, 0, 0, [1, 1, 0, 1]>, <111, 12, 33, 21, 5, 0, 0, [1, 1, 0, 1]>, <112, 13, 34, 21, 5, 0, 0, [1, 1, 0, 1]>, <113, 14, 35, 21, 5, 0, 0, [1, 1, 0, 1]>, <114, 0, 22, 22, 6, 0, 0, [1, 1, 0, 1]>, <115, 1, 23, 22, 6, 0, 0, [1, 1, 0, 1]>, <116, 2, 24, 22, 6, 0, 0, [1, 1, 0, 1]>, <117, 3, 25, 22, 6, 0, 0, [1, 1, 0, 1]>, <118, 4, 26, 22, 6, 0, 0, [1, 1, 0, 1]>, <119, 5, 27, 22, 6, 0, 0, [1, 1, 0, 1]>, <120, 6, 28, 22, 6, 0, 0, [1, 1, 0, 1]>, <121, 7, 29, 22, 6, 0, 0, [1, 1, 0, 1]>, <122, 8, 30, 22, 6, 0, 0, [1, 1, 0, 1]>, <123, 9, 31, 22, 6, 0, 0, [1, 1, 0, 1]>, <124, 10, 32, 22, 6, 0, 0, [1, 1, 0, 1]>, <125, 11, 33, 22, 6, 0, 0, [1, 1, 0, 1]>, <126, 12, 34, 22, 6, 0, 0, [1, 1, 0, 1]>, <127, 13, 35, 22, 6, 0, 0, [1, 1, 0, 1]>, <128, 0, 18, 18, 7, 1, 0, [1, 0, 1, 1]>, <129, 1, 19, 18, 7, 1, 0, [1, 0, 1, 1]>, <130, 2, 20, 18, 7, 1, 0, [1, 0, 1, 1]>, <131, 3, 21, 18, 7, 1, 0, [1, 0, 1, 1]>, <132, 4, 22, 18, 7, 1, 0, [1, 0, 1, 1]>, <133, 5, 23, 18, 7, 1, 0, [1, 0, 1, 1]>, <134, 6, 24, 18, 7, 1, 0, [1, 0, 1, 1]>, <135, 8, 26, 18, 7, 1, 0, [1, 0, 1, 1]>, <136, 9, 27, 18, 7, 1, 0, [1, 0, 1, 1]>, <137, 10, 28, 18, 7, 1, 0, [1, 0, 1, 1]>, <138, 11, 29, 18, 7, 1, 0, [1, 0, 1, 1]>, <139, 12, 30, 18, 7, 1, 0, [1, 0, 1, 1]>, <140, 13, 31, 18, 7, 1, 0, [1, 0, 1, 1]>, <141, 14, 32, 18, 7, 1, 0, [1, 0, 1, 1]>, <142, 15, 33, 18, 7, 1, 0, [1, 0, 1, 1]>, <143, 16, 34, 18, 7, 1, 0, [1, 0, 1, 1]>, <144, 17, 35, 18, 7, 1, 0, [1, 0, 1, 1]>};
